centroides = 0;
nNurses = 162;
hours = 61;
demand = [38 27 9 17 23 6 36 5 27 20 34 3 5 22 10 10 12 31 21 5 26 6 0 10 15 19 9 6 33 4 21 32 14 26 11 26 2 39 38 39 27 18 25 32 36 20 13 7 11 28 3 24 1 31 9 18 34 30 4 27 15];
minHours = 16;
maxHours = 22;
maxConsec = 21;
maxPresence = 35;